(set-info :smt-lib-version 2.6)
(set-logic QF_S)
(set-info :source |
Generated by: Hung-En Wang, Tzung-Lin Tsai, Chun-Han Lin, Fang Yu, and Jie-Hong R. Jiang
Generated on: 2019-02-28
Generator: Stranger
Application: Security analysis of string manipulating web applications
Target solver: CVC4, Norn, Z3-str2
Publication:
Hung-En Wang, Tzung-Lin Tsai, Chun-Han Lin, Fang Yu, Jie-Hong R. Jiang:
String Analysis via Automata Manipulation with Logic Circuit Representation. CAV (1) 2016: 241-260.
|)
(set-info :license "https://creativecommons.org/licenses/by/4.0/")
(set-info :category "industrial")
(set-info :status unknown)

(declare-fun sigmaStar_0 () String)
(declare-fun sigmaStar_1 () String)
(declare-fun sigmaStar_2 () String)
(declare-fun literal_5 () String)
(declare-fun x_6 () String)
(declare-fun literal_7 () String)
(declare-fun x_8 () String)
(declare-fun literal_9 () String)
(declare-fun x_10 () String)
(declare-fun x_11 () String)
(declare-fun literal_12 () String)
(declare-fun x_13 () String)
(declare-fun literal_14 () String)
(declare-fun x_15 () String)
(declare-fun x_16 () String)
(declare-fun literal_17 () String)
(declare-fun x_18 () String)
(assert (= literal_5 "\u{3c}\u{74}\u{72}\u{3e}\u{5c}\u{6e}\u{3c}\u{74}\u{64}\u{20}\u{61}\u{6c}\u{69}\u{67}\u{6e}\u{3d}\u{27}\u{63}\u{65}\u{6e}\u{74}\u{65}\u{72}\u{27}\u{20}\u{63}\u{6f}\u{6c}\u{73}\u{70}\u{61}\u{6e}\u{3d}\u{27}\u{35}\u{27}\u{20}\u{63}\u{6c}\u{61}\u{73}\u{73}\u{3d}\u{27}\u{74}\u{62}\u{6c}\u{31}\u{27}\u{3e}\u{3c}\u{73}\u{70}\u{61}\u{6e}\u{20}\u{63}\u{6c}\u{61}\u{73}\u{73}\u{3d}\u{27}\u{73}\u{6d}\u{61}\u{6c}\u{6c}\u{27}\u{3e}\u{3c}\u{61}\u{20}\u{68}\u{72}\u{65}\u{66}\u{3d}\u{27}\u{66}\u{6f}\u{72}\u{75}\u{6d}\u{5f}\u{74}\u{68}\u{72}\u{65}\u{61}\u{64}\u{73}\u{5f}\u{6c}\u{69}\u{73}\u{74}\u{5f}\u{70}\u{61}\u{6e}\u{65}\u{6c}\u{2f}\u{6d}\u{79}\u{5f}\u{74}\u{68}\u{72}\u{65}\u{61}\u{64}\u{73}\u{2e}\u{70}\u{68}\u{70}\u{27}\u{3e}"))
(assert (= x_6 (str.++ literal_5 sigmaStar_2)))
(assert (= literal_7 "\u{3c}\u{2f}\u{61}\u{3e}\u{20}\u{7c}\u{0d}\u{0a}\u{3c}\u{61}\u{20}\u{68}\u{72}\u{65}\u{66}\u{3d}\u{27}"))
(assert (= x_8 (str.++ x_6 literal_7)))
(assert (= literal_9 "\u{66}\u{6f}\u{72}\u{75}\u{6d}\u{5f}\u{74}\u{68}\u{72}\u{65}\u{61}\u{64}\u{73}\u{5f}\u{6c}\u{69}\u{73}\u{74}\u{5f}\u{70}\u{61}\u{6e}\u{65}\u{6c}\u{2f}\u{6d}\u{79}\u{5f}\u{70}\u{6f}\u{73}\u{74}\u{73}\u{2e}\u{70}\u{68}\u{70}\u{27}\u{3e}"))
(assert (= x_10 (str.++ x_8 literal_9)))
(assert (= x_11 (str.++ x_10 sigmaStar_1)))
(assert (= literal_12 "\u{3c}\u{2f}\u{61}\u{3e}\u{20}\u{7c}\u{0d}\u{0a}\u{3c}\u{61}\u{20}\u{68}\u{72}\u{65}\u{66}\u{3d}\u{27}"))
(assert (= x_13 (str.++ x_11 literal_12)))
(assert (= literal_14 "\u{66}\u{6f}\u{72}\u{75}\u{6d}\u{5f}\u{74}\u{68}\u{72}\u{65}\u{61}\u{64}\u{73}\u{5f}\u{6c}\u{69}\u{73}\u{74}\u{5f}\u{70}\u{61}\u{6e}\u{65}\u{6c}\u{2f}\u{6e}\u{65}\u{77}\u{5f}\u{70}\u{6f}\u{73}\u{74}\u{73}\u{2e}\u{70}\u{68}\u{70}\u{27}\u{3e}"))
(assert (= x_15 (str.++ x_13 literal_14)))
(assert (= x_16 (str.++ x_15 sigmaStar_0)))
(assert (= literal_17 "\u{3c}\u{2f}\u{61}\u{3e}\u{3c}\u{2f}\u{73}\u{70}\u{61}\u{6e}\u{3e}\u{3c}\u{2f}\u{74}\u{64}\u{3e}\u{5c}\u{6e}\u{3c}\u{2f}\u{74}\u{72}\u{3e}\u{5c}\u{6e}"))
(assert (= x_18 (str.++ x_16 literal_17)))
(assert (str.in_re x_18 (re.++ (re.* re.allchar) (re.++ (str.to_re "\u{5c}\u{3c}\u{53}\u{43}\u{52}\u{49}\u{50}\u{54}") (re.* re.allchar)))))
(check-sat)
(exit)
